c turning on binary mode checking
c parsing input formula with 202048 variables and 780980 clauses
c finished parsing, read 1891223 bytes from proof file
c detected empty clause; start verification via backward checking
c 3633 of 780980 clauses in core                            
c 1238 of 82498 lemmas in core using 23198 resolution steps
c 0 RAT lemmas in core; 76 redundant literals in core lemmas
s VERIFIED
c verification time: 0.843 seconds
